
%    +---------------+
% 10 | | | | | | | | |
% 9  | | | | | | | | |
% 8  | | | | | | | | |
% 7  | | | | | | | | |
% 6  | | | | | | | | |
% 5  | | | | | | | | |
% 4  | | |1|1| | | | |
% 3  | |2|1|1| |3| | |
% 2  | | | | | | | | |
% 1  | | | | |4| | | |
%    +---------------+
n=8;
m=10;
h=2;
%maxT=15;
boxNumber=4;
boxSideLen = [2, 1, 1, 1];
boxStartX  = [3, 2, 6, 5];
boxStartY  = [3, 3, 3, 1];
